benchmarks_vrp/CMT1/no_cluster/CMT1_3.vrp
NAME: CMT1_3
TYPE: CVRP
COMMENT: 524.61 - Cluster Nr.3
DIMENSION: 12
CAPACITY: 160
EDGE_WEIGHT_TYPE: EUC_2D
NODE_COORD_TYPE: TWOD_COORDS
NODE_COORD_SECTION: 
7 37 52
9 49 49
4 25 32
1 58 48
2 30 40
6 32 39
11 56 37
5 38 46
3 62 42
8 42 41
10 42 57
12 52 41
DEPOT_SECTION: 
2
-1
DEMAND_SECTION: 
3 8
12 15
4 25
2 0
6 5
1 6
10 8
8 19
11 10
5 12
7 7
9 30
EOF
