benchmarks_vrp/CMT1/no_cluster/CMT1_3.tour
NAME: CMT1_3 solution
TYPE: TOUR
TOUR_SECTION:
2 4 8 12 11 3 1 9 10 7 5 6 -1
-1
EOF